# Solution for model micodag
# Objective value = 2.0358162024361334e+01
s_0_1 0
s_1_0 0
s_0_2 0
s_2_0 3.4913410670998157e-01
s_1_2 0
s_2_1 2.9341875588496746e-01
s_1_3 0
s_3_1 5.9732193332527439e-01
s_1_9 0
s_9_1 0
s_1_12 0
s_12_1 3.3262304235200535e-01
s_1_13 0
s_13_1 8.8761355592745339e-02
s_2_3 0
s_3_2 2.0721325759077214e-01
s_2_4 0
s_4_2 3.2751721581441773e-01
s_2_6 0
s_6_2 0
s_2_8 0
s_8_2 2.1152544602562839e-01
s_3_4 0
s_4_3 5.9956375751632285e-01
s_3_6 0
s_6_3 0
s_3_7 0
s_7_3 0
s_3_8 0
s_8_3 3.5968330679150284e-01
s_3_9 0
s_9_3 3.5415055759314384e-01
s_3_12 0
s_12_3 8.7040203370952529e-02
s_3_13 0.0950174574359961
s_13_3 0
s_4_5 0
s_5_4 0
s_4_6 0
s_6_4 3.6706138857591686e-01
s_4_7 0
s_7_4 0
s_4_8 0
s_8_4 0
s_4_11 0
s_11_4 4.1010147233329564e-01
s_5_6 0
s_6_5 6.2625403224007092e-01
s_5_7 0
s_7_5 5.9679284254476084e-01
s_5_14 0
s_14_5 3.2124416464987826e-01
s_6_8 0
s_8_6 3.7972171902340834e-01
s_7_8 0
s_8_7 0
s_7_9 0
s_9_7 3.7996628808903403e+00
s_7_10 0
s_10_7 3.7996628808903403e+00
s_7_11 0
s_11_7 3.7996628808903403e+00
s_8_11 0
s_11_8 2.5119262191160052e-01
s_9_12 0
s_12_9 2.4255943661297952e-01
s_12_13 1.7324442640852222e-01
s_13_12 0
s_0_0 9.5400112431542627e-01
s_1_1 0.642033585003134
s_2_2 6.6329091832861309e-01
s_3_3 8.6401166464201440e-01
s_4_4 1.0070506613355352e+00
s_5_5 6.9917428418021244e-01
s_6_6 9.2440816079185151e-01
s_7_7 3.7996628808903403e+00
s_8_8 5.8385306077743726e-01
s_9_9 1.0511994829787268e+00
s_10_10 6.7987854316476382e-01
s_11_11 6.0126100520535131e-01
s_12_12 1.2223995587561802e+00
s_13_13 3.7408338998995294e-01
s_14_14 0.917147696436512
Gamma_0_0 9.7672981131704328e-01
Gamma_0_1 0
Gamma_0_2 0
Gamma_0_3 0
Gamma_0_4 0
Gamma_0_5 0
Gamma_0_6 0
Gamma_0_7 0
Gamma_0_8 0
Gamma_0_9 0
Gamma_0_10 0
Gamma_0_11 0
Gamma_0_12 0
Gamma_0_13 0
Gamma_0_14 0
Gamma_1_0 0
Gamma_1_1 0.801269982592094
Gamma_1_2 0
Gamma_1_3 0
Gamma_1_4 0
Gamma_1_5 0
Gamma_1_6 0
Gamma_1_7 0
Gamma_1_8 0
Gamma_1_9 0
Gamma_1_10 0
Gamma_1_11 0
Gamma_1_12 0
Gamma_1_13 0
Gamma_1_14 0
Gamma_2_0 -5.9087571172792530e-01
Gamma_2_1 -5.4168141548789372e-01
Gamma_2_2 8.1442674214972466e-01
Gamma_2_3 0
Gamma_2_4 0
Gamma_2_5 0
Gamma_2_6 0
Gamma_2_7 0
Gamma_2_8 0
Gamma_2_9 0
Gamma_2_10 0
Gamma_2_11 0
Gamma_2_12 0
Gamma_2_13 0
Gamma_2_14 0
Gamma_3_0 0
Gamma_3_1 7.7286605134736974e-01
Gamma_3_2 4.5520682946411645e-01
Gamma_3_3 9.2952227764697226e-01
Gamma_3_4 0
Gamma_3_5 0
Gamma_3_6 0
Gamma_3_7 0
Gamma_3_8 0
Gamma_3_9 0
Gamma_3_10 0
Gamma_3_11 0
Gamma_3_12 0
Gamma_3_13 3.0824901854831083e-01
Gamma_3_14 0
Gamma_4_0 0
Gamma_4_1 0
Gamma_4_2 5.7229119844220810e-01
Gamma_4_3 0.774315024725934
Gamma_4_4 1.0035191384998770e+00
Gamma_4_5 0
Gamma_4_6 0
Gamma_4_7 0
Gamma_4_8 0
Gamma_4_9 0
Gamma_4_10 0
Gamma_4_11 0
Gamma_4_12 0
Gamma_4_13 0
Gamma_4_14 0
Gamma_5_0 0
Gamma_5_1 0
Gamma_5_2 0
Gamma_5_3 0
Gamma_5_4 0
Gamma_5_5 8.3616642134219454e-01
Gamma_5_6 0
Gamma_5_7 0
Gamma_5_8 0
Gamma_5_9 0
Gamma_5_10 0
Gamma_5_11 0
Gamma_5_12 0
Gamma_5_13 0
Gamma_5_14 0
Gamma_6_0 0
Gamma_6_1 0
Gamma_6_2 0
Gamma_6_3 0
Gamma_6_4 -6.0585591403890571e-01
Gamma_6_5 7.9136213722926618e-01
Gamma_6_6 9.6146147129869519e-01
Gamma_6_7 0
Gamma_6_8 0
Gamma_6_9 0
Gamma_6_10 0
Gamma_6_11 0
Gamma_6_12 0
Gamma_6_13 0
Gamma_6_14 0
Gamma_7_0 0
Gamma_7_1 0
Gamma_7_2 0
Gamma_7_3 0
Gamma_7_4 0
Gamma_7_5 -7.7252368413192474e-01
Gamma_7_6 0
Gamma_7_7 9.9177512874309948e-01
Gamma_7_8 0
Gamma_7_9 0
Gamma_7_10 0
Gamma_7_11 0
Gamma_7_12 0
Gamma_7_13 0
Gamma_7_14 0
Gamma_8_0 0
Gamma_8_1 0
Gamma_8_2 4.5991895593205234e-01
Gamma_8_3 5.9973603092652650e-01
Gamma_8_4 0
Gamma_8_5 0
Gamma_8_6 -6.1621564328034473e-01
Gamma_8_7 0
Gamma_8_8 0.764102781553266
Gamma_8_9 0
Gamma_8_10 0
Gamma_8_11 0
Gamma_8_12 0
Gamma_8_13 0
Gamma_8_14 0
Gamma_9_0 0
Gamma_9_1 0
Gamma_9_2 0
Gamma_9_3 5.9510550122910533e-01
Gamma_9_4 0
Gamma_9_5 0
Gamma_9_6 0
Gamma_9_7 -5.8148002332088222e-01
Gamma_9_8 0
Gamma_9_9 1.0252801973015608e+00
Gamma_9_10 0
Gamma_9_11 0
Gamma_9_12 0
Gamma_9_13 0
Gamma_9_14 0
Gamma_10_0 0
Gamma_10_1 0
Gamma_10_2 0
Gamma_10_3 0
Gamma_10_4 0
Gamma_10_5 0
Gamma_10_6 0
Gamma_10_7 4.6269018757088182e-01
Gamma_10_8 0
Gamma_10_9 0
Gamma_10_10 8.2454747781117177e-01
Gamma_10_11 0
Gamma_10_12 0
Gamma_10_13 0
Gamma_10_14 0
Gamma_11_0 0
Gamma_11_1 0
Gamma_11_2 0
Gamma_11_3 0
Gamma_11_4 -6.4039165542134946e-01
Gamma_11_5 0
Gamma_11_6 0
Gamma_11_7 0.645484156990927
Gamma_11_8 0.50119120294714
Gamma_11_9 0
Gamma_11_10 0
Gamma_11_11 0.775410217372296
Gamma_11_12 0
Gamma_11_13 0
Gamma_11_14 0
Gamma_12_0 0
Gamma_12_1 -5.7673481111513059e-01
Gamma_12_2 0
Gamma_12_3 2.9502576729999930e-01
Gamma_12_4 0
Gamma_12_5 0
Gamma_12_6 0
Gamma_12_7 0
Gamma_12_8 0
Gamma_12_9 -4.9250323512945615e-01
Gamma_12_10 0
Gamma_12_11 0
Gamma_12_12 1.1056217973412881e+00
Gamma_12_13 0.416226412435015
Gamma_12_14 0
Gamma_13_0 0
Gamma_13_1 2.9792844038920863e-01
Gamma_13_2 0
Gamma_13_3 0
Gamma_13_4 0
Gamma_13_5 0
Gamma_13_6 0
Gamma_13_7 0
Gamma_13_8 0
Gamma_13_9 0
Gamma_13_10 0
Gamma_13_11 0
Gamma_13_12 0
Gamma_13_13 6.1162356886401448e-01
Gamma_13_14 0
Gamma_14_0 0
Gamma_14_1 0
Gamma_14_2 0
Gamma_14_3 0
Gamma_14_4 0
Gamma_14_5 5.6678405468915527e-01
Gamma_14_6 0
Gamma_14_7 0
Gamma_14_8 0
Gamma_14_9 0
Gamma_14_10 0
Gamma_14_11 0
Gamma_14_12 0
Gamma_14_13 0
Gamma_14_14 0.957678284413149
psi_0 6
psi_1 6
psi_2 5
psi_3 4
psi_4 3
psi_5 3
psi_6 2
psi_7 2
psi_8 1
psi_9 1
psi_10 0
psi_11 0
psi_12 0
psi_13 5
psi_14 0
g_0_0 0
g_0_1 0
g_0_2 0
g_0_3 0
g_0_4 0
g_0_5 0
g_0_6 0
g_0_7 0
g_0_8 0
g_0_9 0
g_0_10 0
g_0_11 0
g_0_12 0
g_0_13 0
g_0_14 0
g_1_0 0
g_1_1 0
g_1_2 0
g_1_3 0
g_1_4 0
g_1_5 0
g_1_6 0
g_1_7 0
g_1_8 0
g_1_9 0
g_1_10 0
g_1_11 0
g_1_12 0
g_1_13 0
g_1_14 0
g_2_0 1
g_2_1 1
g_2_2 0
g_2_3 0
g_2_4 0
g_2_5 0
g_2_6 0
g_2_7 0
g_2_8 0
g_2_9 0
g_2_10 0
g_2_11 0
g_2_12 0
g_2_13 0
g_2_14 0
g_3_0 0
g_3_1 1
g_3_2 1
g_3_3 0
g_3_4 0
g_3_5 0
g_3_6 0
g_3_7 0
g_3_8 0
g_3_9 0
g_3_10 0
g_3_11 0
g_3_12 0
g_3_13 1
g_3_14 0
g_4_0 0
g_4_1 0
g_4_2 1
g_4_3 1
g_4_4 0
g_4_5 0
g_4_6 0
g_4_7 0
g_4_8 0
g_4_9 0
g_4_10 0
g_4_11 0
g_4_12 0
g_4_13 0
g_4_14 0
g_5_0 0
g_5_1 0
g_5_2 0
g_5_3 0
g_5_4 0
g_5_5 0
g_5_6 0
g_5_7 0
g_5_8 0
g_5_9 0
g_5_10 0
g_5_11 0
g_5_12 0
g_5_13 0
g_5_14 0
g_6_0 0
g_6_1 0
g_6_2 0
g_6_3 0
g_6_4 1
g_6_5 1
g_6_6 0
g_6_7 0
g_6_8 0
g_6_9 0
g_6_10 0
g_6_11 0
g_6_12 0
g_6_13 0
g_6_14 0
g_7_0 0
g_7_1 0
g_7_2 0
g_7_3 0
g_7_4 0
g_7_5 1
g_7_6 0
g_7_7 0
g_7_8 0
g_7_9 0
g_7_10 0
g_7_11 0
g_7_12 0
g_7_13 0
g_7_14 0
g_8_0 0
g_8_1 0
g_8_2 1
g_8_3 1
g_8_4 0
g_8_5 0
g_8_6 1
g_8_7 0
g_8_8 0
g_8_9 0
g_8_10 0
g_8_11 0
g_8_12 0
g_8_13 0
g_8_14 0
g_9_0 0
g_9_1 0
g_9_2 0
g_9_3 1
g_9_4 0
g_9_5 0
g_9_6 0
g_9_7 1
g_9_8 0
g_9_9 0
g_9_10 0
g_9_11 0
g_9_12 0
g_9_13 0
g_9_14 0
g_10_0 0
g_10_1 0
g_10_2 0
g_10_3 0
g_10_4 0
g_10_5 0
g_10_6 0
g_10_7 1
g_10_8 0
g_10_9 0
g_10_10 0
g_10_11 0
g_10_12 0
g_10_13 0
g_10_14 0
g_11_0 0
g_11_1 0
g_11_2 0
g_11_3 0
g_11_4 1
g_11_5 0
g_11_6 0
g_11_7 1
g_11_8 1
g_11_9 0
g_11_10 0
g_11_11 0
g_11_12 0
g_11_13 0
g_11_14 0
g_12_0 0
g_12_1 1
g_12_2 0
g_12_3 1
g_12_4 0
g_12_5 0
g_12_6 0
g_12_7 0
g_12_8 0
g_12_9 1
g_12_10 0
g_12_11 0
g_12_12 0
g_12_13 1
g_12_14 0
g_13_0 0
g_13_1 1
g_13_2 0
g_13_3 0
g_13_4 0
g_13_5 0
g_13_6 0
g_13_7 0
g_13_8 0
g_13_9 0
g_13_10 0
g_13_11 0
g_13_12 0
g_13_13 0
g_13_14 0
g_14_0 0
g_14_1 0
g_14_2 0
g_14_3 0
g_14_4 0
g_14_5 1
g_14_6 0
g_14_7 0
g_14_8 0
g_14_9 0
g_14_10 0
g_14_11 0
g_14_12 0
g_14_13 0
g_14_14 0
T_0 4.7090429006843237e-02
T_1 0.443114663571464
T_2 4.1054159419427094e-01
T_3 1.4616900952614742e-01
T_4 -0.00702592164229543
T_5 3.5785523423562893e-01
T_6 7.8601572416800991e-02
T_7 1.6517764257827139e-02
T_8 5.3810593607039436e-01
T_9 -4.9931876908971162e-02
T_10 3.8584110975817509e-01
T_11 5.0872615385384279e-01
T_12 -2.0081577846488585e-01
T_13 9.8327653853367281e-01
T_14 8.6486754878961847e-02
